NAME          DCAP_3_4_2_200_SS30
ROWS
 N  OBJ
 L  CON1
 L  CON2
 L  CON3
 L  CON4
 L  CON5
 L  CON6
 L  CON7
 L  CON8
 L  CON9
 L  CON10
 L  CON11
 L  CON12
 E  CON13
 E  CON14
 E  CON15
 E  CON16
 E  CON17
 E  CON18
 E  CON19
 E  CON20
COLUMNS
    x[1,1]    OBJ       6.180167      CON1      1.000000    
    x[1,1]    CON7      -1.000000     CON8      -1.000000   
    x[1,2]    OBJ       5.039546      CON2      1.000000    
    x[1,2]    CON8      -1.000000   
    x[2,1]    OBJ       6.732585      CON3      1.000000    
    x[2,1]    CON9      -1.000000     CON10     -1.000000   
    x[2,2]    OBJ       7.443064      CON4      1.000000    
    x[2,2]    CON10     -1.000000   
    x[3,1]    OBJ       6.563535      CON5      1.000000    
    x[3,1]    CON11     -1.000000     CON12     -1.000000   
    x[3,2]    OBJ       6.054841      CON6      1.000000    
    x[3,2]    CON12     -1.000000   
    MARKER    'MARKER'                'INTORG'
    u[1,1]    OBJ       48.076654     CON1      -1.000000   
    u[1,2]    OBJ       49.466655     CON2      -1.000000   
    u[2,1]    OBJ       49.996186     CON3      -1.000000   
    u[2,2]    OBJ       32.230043     CON4      -1.000000   
    u[3,1]    OBJ       20.066487     CON5      -1.000000   
    u[3,2]    OBJ       27.484319     CON6      -1.000000   
    y[1,1,1]  OBJ       7.492362      CON7      1.250008    
    y[1,1,1]  CON13     1.000000    
    y[1,1,2]  OBJ       5.610354      CON8      0.971261    
    y[1,1,2]  CON14     1.000000    
    y[1,2,1]  OBJ       9.947680      CON7      1.358677    
    y[1,2,1]  CON15     1.000000    
    y[1,2,2]  OBJ       8.775937      CON8      1.153025    
    y[1,2,2]  CON16     1.000000    
    y[1,3,1]  OBJ       9.548742      CON7      0.863799    
    y[1,3,1]  CON17     1.000000    
    y[1,3,2]  OBJ       5.809457      CON8      0.508774    
    y[1,3,2]  CON18     1.000000    
    y[1,4,1]  OBJ       7.290818      CON7      0.576568    
    y[1,4,1]  CON19     1.000000    
    y[1,4,2]  OBJ       6.957439      CON8      0.619758    
    y[1,4,2]  CON20     1.000000    
    y[2,1,1]  OBJ       7.900209      CON9      1.250008    
    y[2,1,1]  CON13     1.000000    
    y[2,1,2]  OBJ       9.077701      CON10     0.971261    
    y[2,1,2]  CON14     1.000000    
    y[2,2,1]  OBJ       8.501074      CON9      1.358677    
    y[2,2,1]  CON15     1.000000    
    y[2,2,2]  OBJ       8.139502      CON10     1.153025    
    y[2,2,2]  CON16     1.000000    
    y[2,3,1]  OBJ       8.429871      CON9      0.863799    
    y[2,3,1]  CON17     1.000000    
    y[2,3,2]  OBJ       5.972619      CON10     0.508774    
    y[2,3,2]  CON18     1.000000    
    y[2,4,1]  OBJ       8.858332      CON9      0.576568    
    y[2,4,1]  CON19     1.000000    
    y[2,4,2]  OBJ       8.006126      CON10     0.619758    
    y[2,4,2]  CON20     1.000000    
    y[3,1,1]  OBJ       5.330946      CON11     1.250008    
    y[3,1,1]  CON13     1.000000    
    y[3,1,2]  OBJ       9.037968      CON12     0.971261    
    y[3,1,2]  CON14     1.000000    
    y[3,2,1]  OBJ       9.161021      CON11     1.358677    
    y[3,2,1]  CON15     1.000000    
    y[3,2,2]  OBJ       6.013229      CON12     1.153025    
    y[3,2,2]  CON16     1.000000    
    y[3,3,1]  OBJ       5.959070      CON11     0.863799    
    y[3,3,1]  CON17     1.000000    
    y[3,3,2]  OBJ       6.018165      CON12     0.508774    
    y[3,3,2]  CON18     1.000000    
    y[3,4,1]  OBJ       8.042009      CON11     0.576568    
    y[3,4,1]  CON19     1.000000    
    y[3,4,2]  OBJ       6.416559      CON12     0.619758    
    y[3,4,2]  CON20     1.000000    
    z[1,1]    OBJ       996.454107    CON13     1.000000    
    z[1,2]    OBJ       845.706337    CON14     1.000000    
    z[2,1]    OBJ       834.008194    CON15     1.000000    
    z[2,2]    OBJ       866.694228    CON16     1.000000    
    z[3,1]    OBJ       924.413501    CON17     1.000000    
    z[3,2]    OBJ       638.450297    CON18     1.000000    
    z[4,1]    OBJ       677.060208    CON19     1.000000    
    z[4,2]    OBJ       700.567303    CON20     1.000000    
    MARKER    'MARKER'                 'INTEND'
RHS
    RHS       CON1      -0.000000     CON2      -0.000000   
    RHS       CON3      -0.000000     CON4      -0.000000   
    RHS       CON5      -0.000000     CON6      -0.000000   
    RHS       CON7      -0.000000     CON8      -0.000000   
    RHS       CON9      -0.000000     CON10     -0.000000   
    RHS       CON11     -0.000000     CON12     -0.000000   
    RHS       CON13     1.000000      CON14     1.000000    
    RHS       CON15     1.000000      CON16     1.000000    
    RHS       CON17     1.000000      CON18     1.000000    
    RHS       CON19     1.000000      CON20     1.000000    
BOUNDS
 BV BOUND     u[1,1]  
 BV BOUND     u[1,2]  
 BV BOUND     u[2,1]  
 BV BOUND     u[2,2]  
 BV BOUND     u[3,1]  
 BV BOUND     u[3,2]  
 BV BOUND     y[1,1,1]
 BV BOUND     y[1,1,2]
 BV BOUND     y[1,2,1]
 BV BOUND     y[1,2,2]
 BV BOUND     y[1,3,1]
 BV BOUND     y[1,3,2]
 BV BOUND     y[1,4,1]
 BV BOUND     y[1,4,2]
 BV BOUND     y[2,1,1]
 BV BOUND     y[2,1,2]
 BV BOUND     y[2,2,1]
 BV BOUND     y[2,2,2]
 BV BOUND     y[2,3,1]
 BV BOUND     y[2,3,2]
 BV BOUND     y[2,4,1]
 BV BOUND     y[2,4,2]
 BV BOUND     y[3,1,1]
 BV BOUND     y[3,1,2]
 BV BOUND     y[3,2,1]
 BV BOUND     y[3,2,2]
 BV BOUND     y[3,3,1]
 BV BOUND     y[3,3,2]
 BV BOUND     y[3,4,1]
 BV BOUND     y[3,4,2]
 BV BOUND     z[1,1]  
 BV BOUND     z[1,2]  
 BV BOUND     z[2,1]  
 BV BOUND     z[2,2]  
 BV BOUND     z[3,1]  
 BV BOUND     z[3,2]  
 BV BOUND     z[4,1]  
 BV BOUND     z[4,2]  
ENDATA
